(set-logic ALL)
(declare-fun var0 () String)
(assert (str.in_re var0 (re.++ (re.* (re.+ (str.to_re "00"))) (re.++ (re.+ (re.+ (str.to_re "11"))) (re.++ (re.+ (re.union (str.to_re "22") (str.to_re "333"))) (re.++ (re.+ (re.union (str.to_re "4") (str.to_re "55"))) (re.++ (re.* (re.* (str.to_re "66"))) (re.++ (re.+ (re.* (str.to_re "7"))) (re.++ (re.+ (re.* (str.to_re "88"))) (re.++ (re.+ (re.* (str.to_re "99"))) (re.++ (re.+ (re.+ (str.to_re "aa"))) (re.union (re.+ (str.to_re "b")) (re.+ (str.to_re "c"))))))))))))))
(assert (<= 376 (str.len var0)))
(check-sat)